;; Original file: phi_17.smt2
(set-logic HORN)
(declare-fun INV1 (Int Int Int Int Int Int ) Bool)
(declare-fun INV2 (Int Int Int Int Int Int ) Bool)
(declare-fun INV3 (Int Int Int Int Int Int ) Bool)


(assert (forall ((G Int)
         (E Int)
         (H Int)
         (F Int)
         (A Int)
         (B Int)
         (D Int)
         (C Int)
         (I Int)
         (J Int))
  (=> (and (= (+ G 1) E)
           (= (* 1 H) F)
           (not (>= A B))
           (>= D G)
           (INV1 A B C D G H)
           (= I J))
      (INV1 A B C D E F))))
(assert (forall ((G Int)
         (B Int)
         (H Int)
         (C Int)
         (I Int)
         (E Int)
         (J Int)
         (F Int)
         (A Int)
         (D Int)
         (K Int)
         (L Int))
  (=> (and (= (+ G 1) B)
           (= (* 1 H) C)
           (= (+ I 1) E)
           (= (* 1 J) F)
           (>= A G)
           (>= D I)
           (INV1 A G H D I J)
           (= K L))
      (INV1 A B C D E F))))
(assert (forall ((G Int)
         (B Int)
         (H Int)
         (C Int)
         (A Int)
         (D Int)
         (E Int)
         (F Int)
         (I Int)
         (J Int))
  (=> (and (= (+ G 1) B)
           (= (* 1 H) C)
           (>= A G)
           (not (>= D E))
           (INV1 A G H D E F)
           (= I J))
      (INV1 A B C D E F))))
(assert (forall ((G Int)
         (B Int)
         (H Int)
         (C Int)
         (D Int)
         (E Int)
         (A Int)
         (F Int)
         (I Int)
         (J Int)
         (K Int)
         (L Int)
         (M Int)
         (N Int)
         (O Int)
         (P Int))
  (=> (and (= (+ G 1) B)
           (= (+ H G) C)
           (not (>= D E))
           (>= A G)
           (INV2 A G H D E F)
           (not (>= I J))
           (not (>= K L))
           (INV1 I J M K L N)
           (= O P))
      (INV2 A B C D E F))))
(assert (forall ((G Int)
         (B Int)
         (H Int)
         (C Int)
         (I Int)
         (E Int)
         (J Int)
         (F Int)
         (D Int)
         (A Int)
         (K Int)
         (L Int)
         (M Int)
         (N Int)
         (O Int)
         (P Int)
         (Q Int)
         (R Int))
  (=> (and (= (+ G 1) B)
           (= (+ H G) C)
           (= (+ I 1) E)
           (= (+ J I) F)
           (>= D I)
           (>= A G)
           (INV2 A G H D I J)
           (not (>= K L))
           (not (>= M N))
           (INV1 K L O M N P)
           (= Q R))
      (INV2 A B C D E F))))
(assert (forall ((G Int)
         (E Int)
         (H Int)
         (F Int)
         (D Int)
         (A Int)
         (B Int)
         (C Int)
         (I Int)
         (J Int)
         (K Int)
         (L Int)
         (M Int)
         (N Int)
         (O Int)
         (P Int))
  (=> (and (= (+ G 1) E)
           (= (+ H G) F)
           (>= D G)
           (not (>= A B))
           (INV2 A B C D G H)
           (not (>= I J))
           (not (>= K L))
           (INV1 I J M K L N)
           (= O P))
      (INV2 A B C D E F))))
(assert (forall ((G Int)
         (E Int)
         (H Int)
         (F Int)
         (A Int)
         (B Int)
         (D Int)
         (C Int)
         (I Int)
         (J Int)
         (K Int)
         (L Int)
         (M Int)
         (N Int)
         (O Int)
         (P Int)
         (Q Int)
         (R Int)
         (S Int)
         (T Int)
         (U Int)
         (V Int))
  (=> (and (= (+ G 1) E)
           (= (* 2 H) F)
           (not (>= A B))
           (>= D G)
           (INV3 A B C D G H)
           (not (>= I J))
           (not (>= K L))
           (INV2 K L M I J N)
           (not (>= O P))
           (not (>= Q R))
           (INV1 O P S Q R T)
           (= U V))
      (INV3 A B C D E F))))
(assert (forall ((G Int)
         (B Int)
         (H Int)
         (C Int)
         (I Int)
         (E Int)
         (J Int)
         (F Int)
         (A Int)
         (D Int)
         (K Int)
         (L Int)
         (M Int)
         (N Int)
         (O Int)
         (P Int)
         (Q Int)
         (R Int)
         (S Int)
         (T Int)
         (U Int)
         (V Int)
         (W Int)
         (X Int))
  (=> (and (= (+ G 1) B)
           (= (* 2 H) C)
           (= (+ I 1) E)
           (= (* 2 J) F)
           (>= A G)
           (>= D I)
           (INV3 A G H D I J)
           (not (>= K L))
           (not (>= M N))
           (INV2 M N O K L P)
           (not (>= Q R))
           (not (>= S T))
           (INV1 Q R U S T V)
           (= W X))
      (INV3 A B C D E F))))
(assert (forall ((G Int)
         (B Int)
         (H Int)
         (C Int)
         (A Int)
         (D Int)
         (E Int)
         (F Int)
         (I Int)
         (J Int)
         (K Int)
         (L Int)
         (M Int)
         (N Int)
         (O Int)
         (P Int)
         (Q Int)
         (R Int)
         (S Int)
         (T Int)
         (U Int)
         (V Int))
  (=> (and (= (+ G 1) B)
           (= (* 2 H) C)
           (>= A G)
           (not (>= D E))
           (INV3 A G H D E F)
           (not (>= I J))
           (not (>= K L))
           (INV2 K L M I J N)
           (not (>= O P))
           (not (>= Q R))
           (INV1 O P S Q R T)
           (= U V))
      (INV3 A B C D E F))))
(assert (forall ((A Int)
         (B Int)
         (C Int)
         (D Int)
         (E Int)
         (F Int)
         (G Int)
         (H Int)
         (I Int)
         (J Int)
         (K Int)
         (L Int)
         (M Int)
         (N Int)
         (O Int)
         (P Int)
         (Q Int)
         (R Int)
         (S Int)
         (T Int))
  (=> (and (not (= A B))
           (not (>= C D))
           (not (>= E F))
           (INV3 C D A E F B)
           (not (>= G H))
           (not (>= I J))
           (INV2 I J K G H L)
           (not (>= M N))
           (not (>= O P))
           (INV1 M N Q O P R)
           (= S T))
      false)))
(assert (forall ((B Int)
         (E Int)
         (D Int)
         (G Int)
         (A Int)
         (H Int)
         (C Int)
         (F Int)
         (I Int)
         (J Int)
         (K Int)
         (L Int)
         (M Int)
         (N Int)
         (O Int)
         (P Int))
  (let ((a!1 (and (= (* (- 1) B) (- 1))
                  (= (* (- 1) E) (- 1))
                  (not (>= D G))
                  (not (>= A H))
                  (INV2 A H C D G F)
                  (not (>= I J))
                  (not (>= K L))
                  (INV1 I J M K L N)
                  (= O P))))
    (=> a!1 (INV3 A B C D E F)))))
(assert (forall ((B Int)
         (E Int)
         (A Int)
         (G Int)
         (D Int)
         (H Int)
         (C Int)
         (F Int)
         (I Int)
         (J Int))
  (let ((a!1 (and (= (* (- 1) B) 0)
                  (= (* (- 1) E) (- 1))
                  (not (>= A G))
                  (not (>= D H))
                  (INV1 A G C D H F)
                  (= I J))))
    (=> a!1 (INV2 A B C D E F)))))
(assert (forall ((B Int) (C Int) (E Int) (F Int) (A Int) (D Int))
  (let ((a!1 (and (= (* (- 1) B) (- 1))
                  (= (* (- 1) C) (- 1))
                  (= (* (- 1) E) (- 1))
                  (= (* (- 1) F) (- 1))
                  (= A D))))
    (=> a!1 (INV1 A B C D E F)))))
(check-sat)
